c defined variables: 
p cnf 86 57
a 1 2 3 4 5 6 7 8 9 10 11 12 13 14 0
d 15 2 3 13 14 0
d 16 8 10 14 0
d 17 5 0
d 18 5 6 7 0
d 19 2 4 9 13 0
d 20 8 9 0
d 21 1 2 0
d 22 5 13 0
d 23 3 4 14 0
d 24 4 0
d 25 3 12 0
d 26 1 7 11 14 0
d 27 1 3 6 8 9 10 0
d 28 3 5 7 10 11 0
-5 14 -15 -17 -19 0
2 14 -15 16 19 0
9 10 -15 16 20 0
-9 -14 15 -18 20 0
-8 -9 -15 -19 20 0
-1 2 17 18 21 0
1 -14 -16 19 21 0
9 14 16 -19 -22 0
-3 -6 15 18 22 0
8 14 16 20 22 0
9 -10 16 -19 -23 0
3 10 -15 16 23 0
-5 13 -15 -17 23 0
-3 -9 -15 -19 23 0
6 -7 18 19 -24 0
5 -9 20 -22 -24 0
5 -9 -17 -19 24 0
2 -14 -15 -23 24 0
-3 -8 -16 23 24 0
-2 14 15 22 -25 0
12 -14 -15 -16 25 0
2 13 -19 -24 25 0
10 14 -16 24 25 0
-1 11 15 -16 -26 0
4 10 -16 24 -26 0
-3 11 -15 16 26 0
13 14 -15 24 26 0
2 -13 19 -20 -27 0
-1 3 -20 -22 -27 0
-3 13 -19 22 -27 0
-3 -8 17 -23 -27 0
-8 -9 -18 -23 -27 0
4 7 -18 23 -27 0
2 -14 -15 -24 -27 0
9 -11 15 26 -27 0
-3 14 21 26 -27 0
-4 7 -23 26 -27 0
-3 -6 -15 -21 27 0
1 10 21 22 27 0
3 14 19 -23 27 0
-8 14 17 23 27 0
-1 14 15 -24 27 0
2 6 19 24 27 0
5 -10 17 -26 27 0
8 -11 18 26 27 0
-3 -14 -23 26 27 0
-3 8 16 19 -28 0
-7 -11 -17 20 -28 0
2 7 19 -21 -28 0
-4 5 -19 -22 28 0
7 -14 15 22 28 0
-4 -9 19 -23 28 0
2 3 21 -24 28 0
-5 -10 16 25 28 0
-4 7 24 -26 28 0
-5 -11 23 27 28 0
9 10 24 27 28 0
